0 115 
1 120 
2 121 
3 122 
4 122 
5 124 
6 129 
7 131 
8 133 
9 133 
10 133 
11 132 
12 131 
13 130 
14 129 
15 128 
16 126 
17 125 
18 123 
19 121 
20 120 
21 120 
22 118 
23 117 
24 116 
25 115 
26 116 
27 115 
28 115 
29 115 
30 114 
31 113 
32 111 
33 108 
34 107 
35 106 
36 105 
37 102 
38 103 
39 103 
40 104 
41 103 
42 101 
43 101 
44 100 
45 98 
46 96 
47 94 
48 94 
49 94 
50 93 
51 93 
52 93 
53 95 
54 94 
55 92 
56 90 
57 92 
58 91 
59 90 
60 90 
61 90 
62 88 
63 87 
64 85 
65 84 
66 83 
67 81 
68 80 
69 78 
70 76 
71 73 
72 71 
73 69 
74 67 
75 67 
76 66 
77 65 
78 64 
79 62 
80 62 
81 60 
82 58 
83 56 
84 53 
85 51 
86 49 
87 47 
88 49 
89 50 
90 49 
91 48 
92 47 
93 46 
94 46 
95 47 
96 46 
97 45 
98 43 
99 42 
100 40 
101 40 
102 39 
103 38 
104 37 
105 35 
106 36 
107 35 
108 34 
109 33 
110 32 
111 32 
112 31 
113 30 
114 29 
115 27 
116 27 
117 26 
118 25 
119 24 
120 25 
121 24 
122 23 
123 22 
124 19 
125 22 
126 21 
127 20 
128 19 
129 18 
130 17 
131 16 
132 15 
133 14 
134 14 
135 12 
136 12 
137 11 
138 10 
139 9 
140 9 
141 9 
142 10 
143 9 
144 8 
145 7 
146 7 
147 6 
148 5 
149 4 
150 3 
151 1 
152 0 
153 0 

